Minimize
  - 3 y_0 - 20 y_1 - 12 y_2 - 26 y_3 - 12 y_4 - 21 y_5 - 10 y_6 - 19 y_7
   - 26 y_8 - 21 y_9 - 21 y_10 - 26 y_11 - 22 y_12 - 11 y_13 - 20 y_14
   - 7 y_15 - 25 y_16 - 11 y_17 - 28 y_18 - 11 y_19 - 7 y_20 - 17 y_21
   - 17 y_22 - 24 y_23 - 12 y_24 - 21 y_25 - 12 y_26 - 21 y_27 - 12 y_28
   - 17 y_29 - 22 y_30 - 22 y_31 - 25 y_32 - 28 y_33 - 7 y_34 - 22 y_35
   - 8 y_36 - 21 y_37 - 16 y_38 - 22 y_39 - 9 y_40 - 21 y_42 - 15 y_43
   - 6 y_44 - 9 y_45 - 19 y_46 - 23 y_47 - 21 y_48 - 25 y_49 + 853 Constant
Subject To
 c_0: y_24 = 1
 c_1_0: y_0 + y_41 >= 1
 c_1_1: y_1 + y_35 + y_49 >= 1
 c_1_2: y_2 + y_38 >= 1
 c_1_3: y_3 + y_16 >= 1
 c_1_4: y_4 + y_26 + y_28 >= 1
 c_1_5: y_5 >= 1
 c_1_6: y_6 + y_44 >= 1
 c_1_7: y_7 + y_9 + y_12 + y_14 >= 1
 c_1_8: y_8 + y_18 + y_23 + y_30 + y_37 >= 1
 c_1_9: y_7 + y_9 + y_12 + y_14 >= 1
 c_1_10: y_10 >= 1
 c_1_11: y_11 + y_16 + y_39 >= 1
 c_1_12: y_7 + y_9 + y_12 + y_14 >= 1
 c_1_13: y_13 + y_24 + y_40 >= 1
 c_1_14: y_7 + y_9 + y_12 + y_14 >= 1
 c_1_15: y_15 + y_34 >= 1
 c_1_16: y_3 + y_11 + y_16 + y_39 + y_48 >= 1
 c_1_17: y_17 + y_19 + y_20 + y_36 + y_43 >= 1
 c_1_18: y_8 + y_18 + y_23 + y_33 >= 1
 c_1_19: y_17 + y_19 + y_20 + y_36 + y_43 >= 1
 c_1_20: y_17 + y_19 + y_20 + y_36 >= 1
 c_1_21: y_21 + y_46 >= 1
 c_1_22: y_22 + y_39 + y_48 >= 1
 c_1_23: y_8 + y_18 + y_23 + y_30 + y_33 + y_37 >= 1
 c_1_24: y_13 + y_24 + y_34 + y_40 >= 1
 c_1_25: y_25 >= 1
 c_1_26: y_4 + y_26 + y_28 >= 1
 c_1_27: y_27 + y_29 + y_42 >= 1
 c_1_28: y_4 + y_26 + y_28 >= 1
 c_1_29: y_27 + y_29 >= 1
 c_1_30: y_8 + y_23 + y_30 + y_37 + y_39 + y_48 >= 1
 c_1_31: y_31 + y_46 >= 1
 c_1_32: y_32 >= 1
 c_1_33: y_18 + y_23 + y_33 >= 1
 c_1_34: y_15 + y_24 + y_34 + y_40 >= 1
 c_1_35: y_1 + y_35 + y_49 >= 1
 c_1_36: y_17 + y_19 + y_20 + y_36 >= 1
 c_1_37: y_8 + y_23 + y_30 + y_37 + y_39 + y_48 >= 1
 c_1_38: y_2 + y_38 >= 1
 c_1_39: y_11 + y_16 + y_22 + y_30 + y_37 + y_39 + y_48 >= 1
 c_1_40: y_13 + y_24 + y_34 + y_40 + y_44 >= 1
 c_1_41: y_0 + y_41 >= 1
 c_1_42: y_27 + y_42 >= 1
 c_1_43: y_17 + y_19 + y_43 >= 1
 c_1_44: y_6 + y_40 + y_44 >= 1
 c_1_45: y_45 >= 1
 c_1_46: y_21 + y_31 + y_46 >= 1
 c_1_47: y_47 >= 1
 c_1_48: y_16 + y_22 + y_30 + y_37 + y_39 + y_48 >= 1
 c_1_49: y_1 + y_35 + y_49 >= 1
Bounds
 Constant = 1
Binaries
 y_0 y_1 y_2 y_3 y_4 y_5 y_6 y_7 y_8 y_9 y_10 y_11 y_12 y_13 y_14 y_15 y_16
 y_17 y_18 y_19 y_20 y_21 y_22 y_23 y_24 y_25 y_26 y_27 y_28 y_29 y_30 y_31
 y_32 y_33 y_34 y_35 y_36 y_37 y_38 y_39 y_40 y_41 y_42 y_43 y_44 y_45 y_46
 y_47 y_48 y_49
End
